p cnf 15 40
15 14 9 0
15 -14 6 0
-15 13 6 0
-15 13 -5 0
15 12 -5 0
15 11 8 0
15 -10 1 0
-15 7 -6 0
-15 7 1 0
14 13 -11 0
-14 -13 9 0
14 12 3 0
14 -11 6 0
-14 9 1 0
-13 -11 -3 0
13 -10 -2 0
-13 9 -8 0
13 -8 -7 0
-13 7 -5 0
13 6 -4 0
-13 -6 4 0
-13 5 1 0
13 -3 -2 0
12 -7 -6 0
12 6 3 0
-11 -9 -8 0
-11 9 7 0
-11 9 -6 0
11 -8 -7 0
11 -8 -4 0
-11 5 4 0
-9 -8 -6 0
9 7 -5 0
9 -7 -3 0
9 5 -4 0
-9 -5 2 0
-8 -3 1 0
-7 5 -4 0
7 5 2 0
4 2 -1 0
